\ LP format - for model browsing. Use MPS format to capture full model detail.
Maximize
  0.7605143839899937 x[D'Angelo_Russell]
   + 0.6491654940587868 x[Damian_Lillard]
   + 0.8383169168230143 x[Darius_Garland]
   + 0.7268214509068167 x[De'Aaron_Fox]
   + 0.9110576923076923 x[Fred_VanVleet]
   + 0.7479674796747967 x[Jalen_Brunson]
   + 0.7466580675422139 x[Jamal_Murray]
   + 0.7513582707942464 x[James_Harden]
   + 0.6599437148217637 x[Jordan_Poole]
   + 0.7826766729205754 x[Jrue_Holiday]
   + 0.7732371794871795 x[Kevin_Porter_Jr.]
   + 0.759302689180738 x[Killian_Hayes] + 0.7769113508442778 x[Luka_Doni]
   + 0.7262546904315197 x[Markelle_Fultz]
   + 0.7594883520950595 x[Mike_Conley]
   + 0.6587417917448406 x[Patrick_Beverley]
   + 0.6827411663539713 x[Russell_Westbrook]
   + 0.8699480143839899 x[Shai_Gilgeous-Alexander]
   + 0.7158673389618512 x[Spencer_Dinwiddie]
   + 0.7278474828017512 x[Trae_Young] + 0.7043366948092558 x[Tre_Jones]
   + 0.8506879299562227 x[Tyrese_Haliburton]
Subject To
 R0: x[D'Angelo_Russell] + x[Damian_Lillard] + x[Darius_Garland]
   + x[De'Aaron_Fox] + x[Fred_VanVleet] + x[Jalen_Brunson]
   + x[Jamal_Murray] + x[James_Harden] + x[Jordan_Poole] + x[Jrue_Holiday]
   + x[Kevin_Porter_Jr.] + x[Killian_Hayes] + x[Luka_Doni]
   + x[Markelle_Fultz] + x[Mike_Conley] + x[Patrick_Beverley]
   + x[Russell_Westbrook] + x[Shai_Gilgeous-Alexander]
   + x[Spencer_Dinwiddie] + x[Trae_Young] + x[Tre_Jones]
   + x[Tyrese_Haliburton] = 2
 R1: 3.2309411e+07 x[D'Angelo_Russell] + 4.3754169e+07 x[Damian_Lillard]
   + 9.185668e+06 x[Darius_Garland] + 3.1252978e+07 x[De'Aaron_Fox]
   + 2.188095e+07 x[Fred_VanVleet] + 2.8556783e+07 x[Jalen_Brunson]
   + 3.2590362e+07 x[Jamal_Murray] + 3.3979828e+07 x[James_Harden]
   + 4.017238e+06 x[Jordan_Poole] + 3.5338527e+07 x[Jrue_Holiday]
   + 3.313168e+06 x[Kevin_Porter_Jr.] + 6.011093e+06 x[Killian_Hayes]
   + 3.819796e+07 x[Luka_Doni] + 1.6989914e+07 x[Markelle_Fultz]
   + 2.3353409e+07 x[Mike_Conley] + 1.4211408e+07 x[Patrick_Beverley]
   + 4.8478072e+07 x[Russell_Westbrook]
   + 3.1831634e+07 x[Shai_Gilgeous-Alexander]
   + 2.0078989e+07 x[Spencer_Dinwiddie] + 3.819796e+07 x[Trae_Young]
   + 1.83555e+06 x[Tre_Jones] + 4.340274e+06 x[Tyrese_Haliburton]
   <= 2.844065e+07
Bounds
Binaries
 x[D'Angelo_Russell] x[Damian_Lillard] x[Darius_Garland] x[De'Aaron_Fox]
 x[Fred_VanVleet] x[Jalen_Brunson] x[Jamal_Murray] x[James_Harden]
 x[Jordan_Poole] x[Jrue_Holiday] x[Kevin_Porter_Jr.] x[Killian_Hayes]
 x[Luka_Doni] x[Markelle_Fultz] x[Mike_Conley] x[Patrick_Beverley]
 x[Russell_Westbrook] x[Shai_Gilgeous-Alexander] x[Spencer_Dinwiddie]
 x[Trae_Young] x[Tre_Jones] x[Tyrese_Haliburton]
End
